
Substitution eliminates 3 variables.
Adjusted problem:
3 variables, all nonlinear
3 constraints, all nonlinear; 7 nonzeros
	3 equality constraints
0 objectives.

Ipopt 3.11.9: acceptable_tol=1.0e-14


******************************************************************************
This program contains Ipopt, a library for large-scale nonlinear optimization.
 Ipopt is released as open source code under the Eclipse Public License (EPL).
         For more information visit http://projects.coin-or.org/Ipopt
******************************************************************************

This is Ipopt version 3.11.9, running with linear solver ma27.

Number of nonzeros in equality constraint Jacobian...:        7
Number of nonzeros in inequality constraint Jacobian.:        0
Number of nonzeros in Lagrangian Hessian.............:        6

Total number of variables............................:        3
                     variables with only lower bounds:        0
                variables with lower and upper bounds:        3
                     variables with only upper bounds:        0
Total number of equality constraints.................:        3
Total number of inequality constraints...............:        0
        inequality constraints with only lower bounds:        0
   inequality constraints with lower and upper bounds:        0
        inequality constraints with only upper bounds:        0

iter    objective    inf_pr   inf_du lg(mu)  ||d||  lg(rg) alpha_du alpha_pr  ls
   0  0.0000000e+00 4.77e-09 0.00e+00  -1.0 0.00e+00    -  0.00e+00 0.00e+00   0

Number of Iterations....: 0

                                   (scaled)                 (unscaled)
Objective...............:   0.0000000000000000e+00    0.0000000000000000e+00
Dual infeasibility......:   0.0000000000000000e+00    0.0000000000000000e+00
Constraint violation....:   4.7658170743147821e-09    4.7658170743147821e-09
Complementarity.........:   0.0000000000000000e+00    0.0000000000000000e+00
Overall NLP error.......:   4.7658170743147821e-09    4.7658170743147821e-09


Number of objective function evaluations             = 1
Number of objective gradient evaluations             = 1
Number of equality constraint evaluations            = 1
Number of inequality constraint evaluations          = 0
Number of equality constraint Jacobian evaluations   = 1
Number of inequality constraint Jacobian evaluations = 0
Number of Lagrangian Hessian evaluations             = 0
Total CPU secs in IPOPT (w/o function evaluations)   =      0.000
Total CPU secs in NLP function evaluations           =      0.000

EXIT: Optimal Solution Found.
 
Ipopt 3.11.9: Optimal Solution Found

suffix ipopt_zU_out OUT;
suffix ipopt_zL_out OUT;
x [*] :=
1  0.11279548426289066
2  0.3732455305559321
3  0.5139589851811772
;

_svar [*] :=
1  0.8872045157371093
2  0.6267544694440679
3  1
;

ignore this line 7
@@@ Problem statistics
constraints: 3 variables: 3 nonzeros: 7
Variable vector:
0.6092090562543065
0.1898730530200304
1.6875682077960734

Residual vector:
0.04528265962767897
-0.8372563003879272
-1.160318248167978

gjh: "negate.gjh" written.  Execute
 
	include "negate.gjh"
	remove "negate.gjh";
